c description: There is a graph of 3 vertices with a 8-clique and a 8-coloring
c generator: CNFgen (0.9.0)
c copyright: (C) 2012-2020 Massimo Lauria <massimo.lauria@uniroma1.it>
c url: https://massimolauria.net/cnfgen
c
p cnf 51 395
-4 -5 0
-4 -6 0
-5 -6 0
4 5 6 0
-7 -8 0
-7 -9 0
-8 -9 0
7 8 9 0
-10 -11 0
-10 -12 0
-11 -12 0
10 11 12 0
-13 -14 0
-13 -15 0
-14 -15 0
13 14 15 0
-16 -17 0
-16 -18 0
-17 -18 0
16 17 18 0
-19 -20 0
-19 -21 0
-20 -21 0
19 20 21 0
-22 -23 0
-22 -24 0
-23 -24 0
22 23 24 0
-25 -26 0
-25 -27 0
-26 -27 0
25 26 27 0
-4 -7 0
-4 -10 0
-4 -13 0
-4 -16 0
-4 -19 0
-4 -22 0
-4 -25 0
-7 -10 0
-7 -13 0
-7 -16 0
-7 -19 0
-7 -22 0
-7 -25 0
-10 -13 0
-10 -16 0
-10 -19 0
-10 -22 0
-10 -25 0
-13 -16 0
-13 -19 0
-13 -22 0
-13 -25 0
-16 -19 0
-16 -22 0
-16 -25 0
-19 -22 0
-19 -25 0
-22 -25 0
-5 -8 0
-5 -11 0
-5 -14 0
-5 -17 0
-5 -20 0
-5 -23 0
-5 -26 0
-8 -11 0
-8 -14 0
-8 -17 0
-8 -20 0
-8 -23 0
-8 -26 0
-11 -14 0
-11 -17 0
-11 -20 0
-11 -23 0
-11 -26 0
-14 -17 0
-14 -20 0
-14 -23 0
-14 -26 0
-17 -20 0
-17 -23 0
-17 -26 0
-20 -23 0
-20 -26 0
-23 -26 0
-6 -9 0
-6 -12 0
-6 -15 0
-6 -18 0
-6 -21 0
-6 -24 0
-6 -27 0
-9 -12 0
-9 -15 0
-9 -18 0
-9 -21 0
-9 -24 0
-9 -27 0
-12 -15 0
-12 -18 0
-12 -21 0
-12 -24 0
-12 -27 0
-15 -18 0
-15 -21 0
-15 -24 0
-15 -27 0
-18 -21 0
-18 -24 0
-18 -27 0
-21 -24 0
-21 -27 0
-24 -27 0
1 -4 -8 0
1 -4 -11 0
1 -4 -14 0
1 -4 -17 0
1 -4 -20 0
1 -4 -23 0
1 -4 -26 0
1 -7 -5 0
1 -7 -11 0
1 -7 -14 0
1 -7 -17 0
1 -7 -20 0
1 -7 -23 0
1 -7 -26 0
1 -10 -5 0
1 -10 -8 0
1 -10 -14 0
1 -10 -17 0
1 -10 -20 0
1 -10 -23 0
1 -10 -26 0
1 -13 -5 0
1 -13 -8 0
1 -13 -11 0
1 -13 -17 0
1 -13 -20 0
1 -13 -23 0
1 -13 -26 0
1 -16 -5 0
1 -16 -8 0
1 -16 -11 0
1 -16 -14 0
1 -16 -20 0
1 -16 -23 0
1 -16 -26 0
1 -19 -5 0
1 -19 -8 0
1 -19 -11 0
1 -19 -14 0
1 -19 -17 0
1 -19 -23 0
1 -19 -26 0
1 -22 -5 0
1 -22 -8 0
1 -22 -11 0
1 -22 -14 0
1 -22 -17 0
1 -22 -20 0
1 -22 -26 0
1 -25 -5 0
1 -25 -8 0
1 -25 -11 0
1 -25 -14 0
1 -25 -17 0
1 -25 -20 0
1 -25 -23 0
2 -4 -9 0
2 -4 -12 0
2 -4 -15 0
2 -4 -18 0
2 -4 -21 0
2 -4 -24 0
2 -4 -27 0
2 -7 -6 0
2 -7 -12 0
2 -7 -15 0
2 -7 -18 0
2 -7 -21 0
2 -7 -24 0
2 -7 -27 0
2 -10 -6 0
2 -10 -9 0
2 -10 -15 0
2 -10 -18 0
2 -10 -21 0
2 -10 -24 0
2 -10 -27 0
2 -13 -6 0
2 -13 -9 0
2 -13 -12 0
2 -13 -18 0
2 -13 -21 0
2 -13 -24 0
2 -13 -27 0
2 -16 -6 0
2 -16 -9 0
2 -16 -12 0
2 -16 -15 0
2 -16 -21 0
2 -16 -24 0
2 -16 -27 0
2 -19 -6 0
2 -19 -9 0
2 -19 -12 0
2 -19 -15 0
2 -19 -18 0
2 -19 -24 0
2 -19 -27 0
2 -22 -6 0
2 -22 -9 0
2 -22 -12 0
2 -22 -15 0
2 -22 -18 0
2 -22 -21 0
2 -22 -27 0
2 -25 -6 0
2 -25 -9 0
2 -25 -12 0
2 -25 -15 0
2 -25 -18 0
2 -25 -21 0
2 -25 -24 0
3 -5 -9 0
3 -5 -12 0
3 -5 -15 0
3 -5 -18 0
3 -5 -21 0
3 -5 -24 0
3 -5 -27 0
3 -8 -6 0
3 -8 -12 0
3 -8 -15 0
3 -8 -18 0
3 -8 -21 0
3 -8 -24 0
3 -8 -27 0
3 -11 -6 0
3 -11 -9 0
3 -11 -15 0
3 -11 -18 0
3 -11 -21 0
3 -11 -24 0
3 -11 -27 0
3 -14 -6 0
3 -14 -9 0
3 -14 -12 0
3 -14 -18 0
3 -14 -21 0
3 -14 -24 0
3 -14 -27 0
3 -17 -6 0
3 -17 -9 0
3 -17 -12 0
3 -17 -15 0
3 -17 -21 0
3 -17 -24 0
3 -17 -27 0
3 -20 -6 0
3 -20 -9 0
3 -20 -12 0
3 -20 -15 0
3 -20 -18 0
3 -20 -24 0
3 -20 -27 0
3 -23 -6 0
3 -23 -9 0
3 -23 -12 0
3 -23 -15 0
3 -23 -18 0
3 -23 -21 0
3 -23 -27 0
3 -26 -6 0
3 -26 -9 0
3 -26 -12 0
3 -26 -15 0
3 -26 -18 0
3 -26 -21 0
3 -26 -24 0
-28 -29 0
-28 -30 0
-28 -31 0
-28 -32 0
-28 -33 0
-28 -34 0
-28 -35 0
-29 -30 0
-29 -31 0
-29 -32 0
-29 -33 0
-29 -34 0
-29 -35 0
-30 -31 0
-30 -32 0
-30 -33 0
-30 -34 0
-30 -35 0
-31 -32 0
-31 -33 0
-31 -34 0
-31 -35 0
-32 -33 0
-32 -34 0
-32 -35 0
-33 -34 0
-33 -35 0
-34 -35 0
28 29 30 31 32 33 34 35 0
-36 -37 0
-36 -38 0
-36 -39 0
-36 -40 0
-36 -41 0
-36 -42 0
-36 -43 0
-37 -38 0
-37 -39 0
-37 -40 0
-37 -41 0
-37 -42 0
-37 -43 0
-38 -39 0
-38 -40 0
-38 -41 0
-38 -42 0
-38 -43 0
-39 -40 0
-39 -41 0
-39 -42 0
-39 -43 0
-40 -41 0
-40 -42 0
-40 -43 0
-41 -42 0
-41 -43 0
-42 -43 0
36 37 38 39 40 41 42 43 0
-44 -45 0
-44 -46 0
-44 -47 0
-44 -48 0
-44 -49 0
-44 -50 0
-44 -51 0
-45 -46 0
-45 -47 0
-45 -48 0
-45 -49 0
-45 -50 0
-45 -51 0
-46 -47 0
-46 -48 0
-46 -49 0
-46 -50 0
-46 -51 0
-47 -48 0
-47 -49 0
-47 -50 0
-47 -51 0
-48 -49 0
-48 -50 0
-48 -51 0
-49 -50 0
-49 -51 0
-50 -51 0
44 45 46 47 48 49 50 51 0
-1 -28 -36 0
-1 -29 -37 0
-1 -30 -38 0
-1 -31 -39 0
-1 -32 -40 0
-1 -33 -41 0
-1 -34 -42 0
-1 -35 -43 0
-2 -28 -44 0
-2 -29 -45 0
-2 -30 -46 0
-2 -31 -47 0
-2 -32 -48 0
-2 -33 -49 0
-2 -34 -50 0
-2 -35 -51 0
-3 -36 -44 0
-3 -37 -45 0
-3 -38 -46 0
-3 -39 -47 0
-3 -40 -48 0
-3 -41 -49 0
-3 -42 -50 0
-3 -43 -51 0